p td 22 180
2 1
3 2
3 1
4 3
4 2
4 1
5 2
5 1
5 4
5 3
6 2
6 5
6 4
6 3
7 4
7 5
7 3
7 2
8 2
8 6
8 7
8 1
8 4
9 6
9 5
9 1
9 7
9 4
9 3
10 2
10 3
10 7
10 4
10 8
10 1
10 9
11 10
11 2
11 8
11 3
11 1
11 7
11 9
11 6
11 5
12 6
12 9
12 3
12 8
12 5
12 4
12 1
12 7
12 11
13 11
13 1
13 3
13 7
13 5
13 10
13 2
13 9
13 6
13 12
13 4
14 7
14 3
14 2
14 10
14 9
14 13
15 3
15 9
15 10
15 8
15 13
15 7
15 1
15 12
15 4
15 11
15 2
16 5
16 10
16 13
16 1
16 6
16 12
16 11
16 4
16 3
16 9
16 2
16 8
17 15
17 1
17 11
17 14
17 7
17 5
17 6
17 10
17 3
17 16
17 12
17 4
17 9
17 13
17 8
17 2
18 1
18 16
18 4
18 8
18 13
18 10
18 9
18 6
18 7
18 5
18 12
18 14
19 11
19 3
19 9
19 16
19 12
19 2
19 15
19 14
19 1
19 10
19 5
19 4
19 13
19 7
20 5
20 6
20 19
20 16
20 1
20 9
20 8
20 4
20 2
20 15
20 11
20 10
20 12
20 13
20 3
20 7
21 9
21 4
21 2
21 11
21 7
21 14
21 6
21 18
21 5
21 13
21 12
22 9
22 8
22 1
22 10
22 13
22 14
22 12
22 7
22 20
22 4
22 17
22 2
22 5
22 18
22 3
22 16
22 11
